p cnf 38 112
a 33 4 0
e 1 2 3 5 6 7 8 9 10 11 12 13 14 15 16 17 18 19 20 21 22 23 24 25 26 27 28 29 30 31 32 34 35 36 37 38 0
-4 -2 0
-4 -3 0
2 3 4 0
5 1 0
5 -4 0
-1 4 -5 0
-6 3 0
-6 3 0
-3 6 0
-5 -6 -7 0
5 6 -7 0
-5 6 7 0
5 -6 7 0
5 8 -9 0
-5 -8 -9 0
5 -8 9 0
-5 8 9 0
10 5 -11 0
-10 -5 -11 0
10 -5 11 0
-10 5 11 0
12 -6 0
12 -5 0
6 5 -12 0
11 -12 -13 0
-11 12 -13 0
11 12 13 0
-11 -12 13 0
-14 -11 0
-14 2 0
11 -2 14 0
-16 10 0
-16 15 0
-10 -15 16 0
10 -16 -17 0
-10 16 -17 0
10 16 17 0
-10 -16 17 0
18 -14 0
18 17 0
14 -17 -18 0
-19 13 0
-19 -18 0
-13 18 19 0
21 -2 0
21 -20 0
2 20 -21 0
22 -19 0
22 -21 0
19 21 -22 0
-23 10 0
-23 -2 0
-10 2 23 0
24 3 0
24 3 0
-3 -24 0
-25 -2 0
-25 -24 0
2 24 25 0
26 -23 0
26 25 0
23 -25 -26 0
27 22 0
27 -26 0
-22 26 -27 0
14 11 -28 0
-14 -11 -28 0
14 -11 28 0
-14 11 28 0
-29 27 0
-29 28 0
-27 -28 29 0
30 -2 -31 0
-30 2 -31 0
30 2 31 0
-30 -2 31 0
1 30 -32 0
-1 -30 -32 0
1 -30 32 0
-1 30 32 0
33 -12 0
33 5 0
12 -5 -33 0
34 32 0
34 -33 0
-32 33 -34 0
31 -34 -35 0
-31 34 -35 0
31 34 35 0
-31 -34 35 0
-29 35 -36 0
29 -35 -36 0
-29 -35 36 0
29 35 36 0
-9 -36 -37 0
9 36 -37 0
-9 36 37 0
9 -36 37 0
38 7 0
38 37 0
-7 -37 -38 0
-14 -3 -4 12 30 -25 -27 0
-10 -17 31 -35 13 -27 -34 11 0
-13 35 -7 -1 25 2 10 9 0
-14 34 -5 -20 -1 0
26 -19 25 12 0
-36 2 -16 24 -31 26 -14 0
4 16 22 31 -36 -23 24 -33 0
27 21 -18 15 0
-6 -35 -3 31 20 15 0
-12 13 -2 11 0
38 0
